[VALIDATOR STDOUT]
Checking plan: /home/jfan5/Safety-gen/runs/benchmark/optic/ferry_20260129_162355/ferry/optic_results/ferry-l48-c25-s48001.plan
Plan executed successfully - checking goal
Plan valid
Final value: 120 

Successful plans:
Value: 120
 /home/jfan5/Safety-gen/runs/benchmark/optic/ferry_20260129_162355/ferry/optic_results/ferry-l48-c25-s48001.plan 120
